NAME : 10_3_3_3_(19).dat
COMMENT : Henke, Speranza, Wäscher, 2015
TYPE : MCVRP
DIMENSION : 11
EDGE_WEIGHT_TYPE : DISTANCE_MATRIX
CAPACITY : 1000
VEHICLES : 2
PRODUCT TYPES : 3
COMPARTMENTS : 3
NODE_COORD_SECTION
1 50 50
2 38.03 79.63
3 93.58 26.7
4 9.67 30.05
5 60.72 7.22
6 12.68 9.85
7 6.85 82.18
8 36.26 5.2
9 22.41 60.56
10 27.12 67.6
11 46.2 46.67
DEMAND_SECTION
1 0 0 0
2 25 56 27
3 72 46 26
4 25 33 23
5 113 23 37
6 122 28 6
7 15 28 29
8 16 13 44
9 109 42 22
10 97 67 5
11 55 53 40
DEPOT_SECTION
1
EOF